50
2 9 85 
2 82 17 
2 105 102 
2 57 53 
3 55 88 89 
2 21 92 
2 13 36 
2 75 63 
2 6 86 
2 98 1 
2 52 104 
2 47 93 
2 76 68 
2 103 25 
2 2 37 
2 44 107 
2 61 87 
2 14 96 
2 58 49 
2 84 20 
2 83 116 
3 117 27 99 
2 108 7 
3 35 11 10 
4 18 28 95 69 
2 97 4 
2 106 23 
2 111 30 
2 50 24 
2 94 32 
2 71 72 
2 54 80 
2 119 46 
2 65 15 
2 70 51 
2 45 66 
2 12 39 
2 60 118 
2 78 113 
2 40 42 
3 5 56 110 
3 8 91 48 
2 19 33 
2 26 79 
4 90 112 100 62 
4 115 3 64 29 
2 74 34 
4 120 101 31 73 
5 81 43 109 22 114 
6 16 59 67 77 38 41 
